	209103.0	3000.0
	219999.0	0.0
	219999.0	0.0


	189993.0	0.0
	189993.0	0.0


	182000.0	15000.0
	195146.0	0.0
	195146.0	0.0


	172862.0	18000.0
	209103.0	3000.0
	219999.0	0.0


	173813.0	18000.0
	182000.0	15000.0
	202988.0	12000.0
	209103.0	3000.0


	189993.0	0.0


	161308.0	21000.0
	180175.0	15000.0


	175038.0	18000.0
	189993.0	0.0
	189993.0	0.0


	170287.0	21000.0
	175570.0	15000.0
	181530.0	12000.0
	195146.0	0.0


	195146.0	0.0


